
  32    4
  10   10   10   10

   0   0   0   0   0   1 2 
   1  10  10  10  10   1 3 
   2  10  10  10  10   1 4 
   3  10  10  10  10   1 5 
   4  10  10  10  10   1 6 
   1  10  10  10  10   1 7 
   5  10  10  10  10   2 31 8 
  10  10  10  10  10   1 9 
   2  10  10  10  10   1 10 
   6  10  10  10  10   1 11 
   3  10  10  10  10   1 12 
   8  10  10  10  10   1 13 
   6  10  10  10  10   1 14 
   3  10  10  10  10   1 15 
   3  10  10  10  10   2 30 16 
   2  10  10  10  10   1 17 
   8  10  10  10  10   2 22 18 
   9  10  10  10  10   1 19 
   3  10  10  10  10   1 20 
   8  10  10  10  10   1 21 
   2  10  10  10  10   1 23 
   7  10  10  10  10   1 23 
   3  10  10  10  10   1 24 
  10  10  10  10  10   1 25 
   6  10  10  10  10   1 26 
   1  10  10  10  10   1 27 
   7  10  10  10  10   1 28 
   4  10  10  10  10   1 29 
  10  10  10  10  10   1 32
   6  10  10  10  10   1 32
   5  10  10  10  10   1 32
   0   0   0   0   0   0 
